35
1 0 1
2 0 1
2 1 10
3 0 7
3 1 7
3 2 7
4 0 3
4 1 3
4 2 10
4 3 5
5 0 7
5 1 2
5 2 4
5 3 5
5 4 7
6 0 1
6 1 7
6 2 7
6 3 4
6 4 6
6 5 1
7 0 5
7 1 2
7 2 5
7 3 10
7 4 6
7 5 7
7 6 1
8 0 1
8 1 2
8 2 4
8 3 10
8 4 9
8 5 8
8 6 5
8 7 4
9 0 7
9 1 4
9 2 6
9 3 5
9 4 6
9 5 1
9 6 10
9 7 6
9 8 2
10 0 7
10 1 7
10 2 8
10 3 10
10 4 5
10 5 6
10 6 6
10 7 2
10 8 2
10 9 7
11 0 2
11 1 1
11 2 8
11 3 1
11 4 10
11 5 2
11 6 8
11 7 7
11 8 5
11 9 5
11 10 1
12 0 9
12 1 6
12 2 10
12 3 8
12 4 1
12 5 4
12 6 10
12 7 10
12 8 1
12 9 1
12 10 10
12 11 10
13 0 8
13 1 10
13 2 7
13 3 9
13 4 7
13 5 2
13 6 5
13 7 6
13 8 6
13 9 5
13 10 5
13 11 2
13 12 5
14 0 10
14 1 10
14 2 3
14 3 2
14 4 8
14 5 1
14 6 3
14 7 5
14 8 4
14 9 5
14 10 7
14 11 2
14 12 7
14 13 5
15 0 7
15 1 7
15 2 8
15 3 4
15 4 10
15 5 6
15 6 8
15 7 10
15 8 9
15 9 7
15 10 10
15 11 1
15 12 7
15 13 6
15 14 5
16 0 2
16 1 2
16 2 8
16 3 5
16 4 10
16 5 1
16 6 5
16 7 6
16 8 3
16 9 9
16 10 6
16 11 6
16 12 1
16 13 1
16 14 2
16 15 7
17 0 7
17 1 5
17 2 9
17 3 2
17 4 10
17 5 7
17 6 3
17 7 5
17 8 3
17 9 6
17 10 4
17 11 4
17 12 9
17 13 1
17 14 3
17 15 9
17 16 2
18 0 5
18 1 7
18 2 9
18 3 1
18 4 6
18 5 9
18 6 6
18 7 5
18 8 5
18 9 6
18 10 6
18 11 4
18 12 2
18 13 2
18 14 3
18 15 3
18 16 8
18 17 7
19 0 7
19 1 10
19 2 7
19 3 6
19 4 4
19 5 8
19 6 2
19 7 7
19 8 7
19 9 9
19 10 6
19 11 5
19 12 9
19 13 8
19 14 10
19 15 1
19 16 3
19 17 9
19 18 6
20 0 10
20 1 10
20 2 9
20 3 8
20 4 7
20 5 10
20 6 1
20 7 10
20 8 2
20 9 4
20 10 8
20 11 7
20 12 8
20 13 9
20 14 7
20 15 6
20 16 4
20 17 4
20 18 3
20 19 5
21 0 9
21 1 3
21 2 10
21 3 9
21 4 1
21 5 10
21 6 3
21 7 7
21 8 6
21 9 10
21 10 7
21 11 1
21 12 3
21 13 4
21 14 7
21 15 1
21 16 3
21 17 6
21 18 5
21 19 10
21 20 4
22 0 9
22 1 2
22 2 9
22 3 8
22 4 5
22 5 4
22 6 8
22 7 4
22 8 10
22 9 1
22 10 5
22 11 3
22 12 8
22 13 6
22 14 3
22 15 8
22 16 6
22 17 9
22 18 1
22 19 6
22 20 8
22 21 8
23 0 8
23 1 2
23 2 1
23 3 2
23 4 1
23 5 8
23 6 3
23 7 2
23 8 7
23 9 5
23 10 10
23 11 5
23 12 2
23 13 6
23 14 6
23 15 8
23 16 10
23 17 7
23 18 4
23 19 10
23 20 1
23 21 4
23 22 10
24 0 3
24 1 3
24 2 7
24 3 7
24 4 10
24 5 6
24 6 6
24 7 6
24 8 6
24 9 10
24 10 1
24 11 4
24 12 1
24 13 5
24 14 1
24 15 7
24 16 1
24 17 5
24 18 3
24 19 2
24 20 2
24 21 10
24 22 2
24 23 7
25 0 8
25 1 1
25 2 8
25 3 8
25 4 4
25 5 7
25 6 7
25 7 7
25 8 5
25 9 9
25 10 8
25 11 4
25 12 2
25 13 10
25 14 9
25 15 1
25 16 7
25 17 1
25 18 5
25 19 2
25 20 4
25 21 8
25 22 6
25 23 9
25 24 2
26 0 9
26 1 5
26 2 4
26 3 6
26 4 5
26 5 4
26 6 2
26 7 2
26 8 5
26 9 6
26 10 2
26 11 5
26 12 2
26 13 10
26 14 10
26 15 3
26 16 1
26 17 10
26 18 6
26 19 8
26 20 1
26 21 5
26 22 7
26 23 1
26 24 4
26 25 5
27 0 10
27 1 8
27 2 3
27 3 4
27 4 8
27 5 6
27 6 10
27 7 4
27 8 5
27 9 6
27 10 7
27 11 1
27 12 9
27 13 2
27 14 2
27 15 7
27 16 1
27 17 6
27 18 1
27 19 10
27 20 10
27 21 6
27 22 6
27 23 2
27 24 8
27 25 3
27 26 3
28 0 4
28 1 7
28 2 5
28 3 3
28 4 4
28 5 2
28 6 9
28 7 9
28 8 5
28 9 2
28 10 7
28 11 2
28 12 5
28 13 9
28 14 2
28 15 4
28 16 4
28 17 10
28 18 3
28 19 10
28 20 6
28 21 3
28 22 7
28 23 5
28 24 6
28 25 9
28 26 4
28 27 2
29 0 8
29 1 7
29 2 4
29 3 3
29 4 6
29 5 3
29 6 1
29 7 7
29 8 6
29 9 8
29 10 2
29 11 7
29 12 9
29 13 1
29 14 9
29 15 3
29 16 9
29 17 1
29 18 3
29 19 8
29 20 10
29 21 7
29 22 6
29 23 5
29 24 8
29 25 1
29 26 5
29 27 7
29 28 9
30 0 8
30 1 1
30 2 1
30 3 5
30 4 6
30 5 4
30 6 9
30 7 5
30 8 1
30 9 3
30 10 9
30 11 9
30 12 5
30 13 9
30 14 1
30 15 6
30 16 6
30 17 7
30 18 4
30 19 4
30 20 8
30 21 2
30 22 2
30 23 10
30 24 3
30 25 7
30 26 6
30 27 10
30 28 3
30 29 7
31 0 10
31 1 7
31 2 6
31 3 1
31 4 5
31 5 3
31 6 5
31 7 8
31 8 4
31 9 6
31 10 1
31 11 2
31 12 9
31 13 3
31 14 6
31 15 1
31 16 6
31 17 1
31 18 3
31 19 8
31 20 2
31 21 10
31 22 10
31 23 6
31 24 7
31 25 3
31 26 9
31 27 4
31 28 1
31 29 9
31 30 8
32 0 1
32 1 10
32 2 3
32 3 1
32 4 7
32 5 4
32 6 5
32 7 5
32 8 5
32 9 6
32 10 4
32 11 6
32 12 3
32 13 5
32 14 9
32 15 4
32 16 7
32 17 2
32 18 3
32 19 3
32 20 2
32 21 5
32 22 3
32 23 1
32 24 6
32 25 6
32 26 7
32 27 8
32 28 3
32 29 7
32 30 2
32 31 5
33 0 7
33 1 6
33 2 8
33 3 3
33 4 7
33 5 5
33 6 7
33 7 4
33 8 5
33 9 1
33 10 7
33 11 8
33 12 3
33 13 5
33 14 1
33 15 3
33 16 5
33 17 10
33 18 7
33 19 7
33 20 5
33 21 5
33 22 5
33 23 10
33 24 4
33 25 2
33 26 1
33 27 4
33 28 4
33 29 10
33 30 8
33 31 3
33 32 7
34 0 3
34 1 4
34 2 5
34 3 8
34 4 2
34 5 10
34 6 4
34 7 4
34 8 10
34 9 4
34 10 6
34 11 7
34 12 7
34 13 7
34 14 9
34 15 9
34 16 3
34 17 7
34 18 10
34 19 8
34 20 7
34 21 9
34 22 7
34 23 6
34 24 9
34 25 3
34 26 8
34 27 5
34 28 10
34 29 6
34 30 4
34 31 2
34 32 4
34 33 2
